; benchmark generated from python API
(set-info :status unknown)
(declare-datatypes ((RealState 0)) (((RMk1 (rval1 Real)) (RMk2 (rval2 Real)))))
 (assert
 (forall ((|v11:0| Real) )(forall ((|v10:1| Real) )(forall ((|v9:2| Real) )(forall ((|v8:3| Real) )(exists ((|v7:4_st| RealState) (val!4180 Real) )(exists ((|v6:5_st| RealState) (val!4181 Real) )(exists ((|v5:6_st| RealState) (val!4182 Real) )(exists ((|v4:7_st| RealState) (val!4183 Real) )(forall ((|v3:8| Real) )(forall ((|v2:9| Real) )(forall ((|v1:10| Real) )(forall ((|v0:11| Real) )(let ((?x2105 (- 4.0)))
 (let ((?x1695 (+ (+ (+ (* 19.0 |v2:9|) (* 13.0 (rval2 |v5:6_st|))) (* 13.0 |v8:3|)) (* (- 5.0) |v8:3|))))
 (let ((?x894 (- 8.0)))
 (let ((?x908 (* ?x894 |v3:8|)))
 (let ((?x2312 (- 11.0)))
 (let ((?x962 (* ?x2312 |v1:10|)))
 (let ((?x456 (+ (+ (+ (* (- 15.0) (rval2 |v5:6_st|)) (* 12.0 (rval2 |v7:4_st|))) ?x962) ?x908)))
 (let ((?x2692 (- 10.0)))
 (let ((?x175 (+ (+ (+ (* (- 2.0) |v1:10|) (* 14.0 |v0:11|)) (* 4.0 |v2:9|)) (* (- 18.0) |v1:10|))))
 (let (($x429 (<= ?x175 ?x2692)))
 (let ((?x48 (* 11.0 |v1:10|)))
 (let (($x2384 (<= (+ (+ (+ (* 4.0 |v11:0|) (* ?x2312 |v0:11|)) (* 16.0 |v9:2|)) ?x48) 12.0)))
 (let ((?x655 (+ (+ (+ (* (- 12.0) |v9:2|) (* 19.0 (rval2 |v6:5_st|))) (* 14.0 |v8:3|)) (* 2.0 |v8:3|))))
 (let ((?x468 (rval2 |v4:7_st|)))
 (let ((?x2288 (* 7.0 ?x468)))
 (let ((?x1839 (+ (+ (+ (* 11.0 |v10:1|) (* (- 7.0) |v11:0|)) (* ?x2692 (rval2 |v6:5_st|))) ?x2288)))
 (let ((?x2329 (- 12.0)))
 (let ((?x877 (* ?x2329 |v3:8|)))
 (let (($x1857 (<= (+ (+ (+ (* 15.0 |v8:3|) (* 9.0 |v10:1|)) (* 4.0 |v10:1|)) ?x877) ?x2105)))
 (let ((?x2641 (- 14.0)))
 (let ((?x2531 (* ?x2641 |v10:1|)))
 (let ((?x1926 (* 8.0 |v8:3|)))
 (let (($x792 (<= (+ (+ (+ (* 3.0 (rval2 |v6:5_st|)) (* ?x2105 (rval2 |v7:4_st|))) ?x1926) ?x2531) 17.0)))
 (let (($x2123 (or (or (and $x792 $x1857) (and (<= ?x1839 19.0) (<= ?x655 14.0))) (and (and $x2384 $x429) (or (<= ?x456 6.0) (<= ?x1695 ?x2105))))))
 (let (($x1360 (<= (+ (+ (+ (* ?x894 |v2:9|) ?x2531) (* 6.0 |v2:9|)) (* 2.0 |v3:8|)) 1.0)))
 (let ((?x1568 (* 0.0 |v10:1|)))
 (let ((?x2787 (+ (+ (+ (* 3.0 |v11:0|) (* (- 13.0) |v2:9|)) (* 5.0 |v2:9|)) ?x1568)))
 (let ((?x23 (- 13.0)))
 (let ((?x1978 (- 19.0)))
 (let ((?x97 (* ?x1978 |v3:8|)))
 (let (($x1298 (<= (+ (+ (+ (* ?x2105 |v8:3|) (* ?x2692 |v2:9|)) (* 9.0 |v9:2|)) ?x97) ?x23)))
 (let ((?x760 (rval2 |v7:4_st|)))
 (let ((?x1942 (* ?x2105 ?x760)))
 (let ((?x199 (+ (+ (+ (* 15.0 ?x760) (* (- 9.0) |v10:1|)) (* 18.0 |v3:8|)) ?x1942)))
 (let ((?x1493 (* 11.0 |v8:3|)))
 (let ((?x220 (+ (+ (+ (* (- 9.0) |v3:8|) (* 3.0 (rval2 |v5:6_st|))) (* 9.0 |v9:2|)) ?x1493)))
 (let ((?x1711 (- 2.0)))
 (let ((?x2023 (* 14.0 |v3:8|)))
 (let (($x1825 (<= (+ (+ (+ (* 16.0 |v0:11|) (* (- 3.0) |v9:2|)) (* ?x2312 |v9:2|)) ?x2023) ?x1711)))
 (let ((?x770 (+ (+ (+ (* 20.0 (rval2 |v6:5_st|)) (* 17.0 ?x468)) (* 19.0 |v1:10|)) (* 15.0 (rval2 |v6:5_st|)))))
 (let (($x1775 (or (or (and (<= ?x770 5.0) $x1825) (<= ?x220 5.0)) (and (and (<= ?x199 ?x2692) $x1298) (and (<= ?x2787 13.0) $x1360)))))
 (let ((?x970 (* 20.0 |v0:11|)))
 (let (($x2528 (<= (+ (+ (+ (* (- 20.0) |v9:2|) ?x760) (* (- 9.0) |v11:0|)) ?x970) 19.0)))
 (let ((?x3175 (rval2 |v5:6_st|)))
 (let ((?x1452 (* 12.0 ?x3175)))
 (let ((?x2191 (+ (+ (* (- 3.0) (rval2 |v6:5_st|)) (* 6.0 |v3:8|)) (* (- 5.0) |v11:0|))))
 (let ((?x249 (+ (+ (+ (* 9.0 |v3:8|) (* ?x23 |v1:10|)) (* (- 3.0) |v2:9|)) (* ?x2329 |v1:10|))))
 (let (($x702 (<= ?x249 2.0)))
 (let ((?x734 (- 20.0)))
 (let ((?x2066 (+ (+ (+ (* (- 17.0) ?x760) (* ?x23 |v9:2|)) (* ?x894 |v8:3|)) (* ?x2329 |v11:0|))))
 (let ((?x2157 (+ (+ (+ (* (- 6.0) (rval2 |v6:5_st|)) (* 10.0 ?x760)) (* ?x1711 |v3:8|)) (* (- 18.0) ?x760))))
 (let ((?x574 (- 3.0)))
 (let ((?x263 (+ (+ (* (- 9.0) (rval2 |v6:5_st|)) (* ?x894 |v9:2|)) (* ?x2312 (rval2 |v6:5_st|)))))
 (let ((?x1717 (+ (+ (+ (* 9.0 ?x760) (* 12.0 ?x760)) ?x2288) (* (- 6.0) |v9:2|))))
 (let ((?x3148 (+ (+ (+ (* 6.0 |v10:1|) (* ?x1711 (rval2 |v6:5_st|))) (* 6.0 ?x468)) (* (- 1.0) |v9:2|))))
 (let (($x1856 (and (or (<= ?x3148 9.0) (<= ?x1717 10.0)) (and (<= (+ ?x263 (* (- 1.0) |v8:3|)) ?x574) (<= ?x2157 1.0)))))
 (let (($x1253 (and $x1856 (and (or (<= ?x2066 ?x734) $x702) (or (<= (+ ?x2191 ?x1452) 14.0) $x2528)))))
 (let ((?x499 (* 12.0 ?x760)))
 (let ((?x1667 (+ (+ (+ (* 4.0 (rval2 |v6:5_st|)) (* 18.0 |v11:0|)) (* 2.0 ?x760)) ?x499)))
 (let ((?x934 (rval2 |v6:5_st|)))
 (let ((?x557 (* 10.0 ?x934)))
 (let ((?x1119 (+ (+ (+ (* (- 18.0) |v8:3|) (* 6.0 |v3:8|)) (* 11.0 ?x760)) ?x557)))
 (let ((?x650 (+ (+ (+ (* ?x23 |v11:0|) (* (- 1.0) |v2:9|)) (* ?x894 |v9:2|)) (* ?x2105 ?x468))))
 (let ((?x1760 (* 17.0 ?x468)))
 (let (($x428 (<= (+ (+ (+ (* 14.0 ?x760) (* ?x1978 |v10:1|)) (* (- 5.0) |v0:11|)) ?x1760) 16.0)))
 (let ((?x581 (- 16.0)))
 (let ((?x1034 (- 7.0)))
 (let ((?x269 (* ?x1034 |v3:8|)))
 (let (($x1548 (<= (+ (+ (+ (* ?x2312 |v9:2|) (* 10.0 |v3:8|)) (* 11.0 ?x934)) ?x269) ?x581)))
 (let ((?x1737 (* 16.0 |v10:1|)))
 (let (($x779 (<= (+ (+ (+ (* 8.0 ?x468) (* 7.0 |v9:2|)) (* 18.0 |v8:3|)) ?x1737) 0.0)))
 (let (($x2561 (and (and $x779 (and $x1548 $x428)) (or (<= ?x650 6.0) (and (<= ?x1119 ?x1711) (<= ?x1667 14.0))))))
 (let (($x457 (<= (+ (+ (+ (* 19.0 |v0:11|) (* 4.0 |v10:1|)) (* 15.0 |v9:2|)) ?x1568) ?x1034)))
 (let ((?x2231 (* 9.0 |v3:8|)))
 (let (($x955 (<= (+ (+ (+ (* ?x2329 |v10:1|) (* ?x1034 |v9:2|)) (* 6.0 |v2:9|)) ?x2231) 17.0)))
 (let ((?x548 (* 19.0 |v1:10|)))
 (let (($x430 (<= (+ (+ (+ (* 11.0 ?x760) (* ?x734 |v0:11|)) (* 12.0 ?x468)) ?x548) ?x1978)))
 (let ((?x1096 (* 11.0 |v2:9|)))
 (let ((?x374 (+ (+ (+ (* (- 9.0) |v1:10|) (* (- 5.0) ?x468)) (* ?x1711 |v0:11|)) ?x1096)))
 (let ((?x2197 (* 13.0 |v1:10|)))
 (let (($x1113 (<= (+ (+ (+ (* 9.0 ?x468) (* 6.0 ?x3175)) (* ?x581 ?x760)) ?x2197) 9.0)))
 (let ((?x2101 (+ (+ (+ (* ?x1711 ?x468) (* ?x2641 |v0:11|)) (* ?x23 |v8:3|)) (* ?x2692 ?x3175))))
 (let (($x954 (and (<= ?x2101 11.0) (and (and $x1113 (<= ?x374 13.0)) (and $x430 $x955)))))
 (let (($x195 (<= (+ (+ (+ (* (- 5.0) ?x468) ?x1493) (* ?x734 ?x3175)) (* 10.0 |v0:11|)) ?x1711)))
 (let ((?x729 (+ (+ (+ (* 10.0 |v2:9|) (* ?x1978 |v2:9|)) (* 14.0 |v10:1|)) (* (- 9.0) |v9:2|))))
 (let ((?x1021 (- 15.0)))
 (let ((?x1338 (+ (+ (+ (* 18.0 ?x3175) (* 7.0 |v3:8|)) (* 4.0 |v8:3|)) (* ?x2692 ?x760))))
 (let (($x2218 (<= (+ (+ (+ (* (- 18.0) |v10:1|) ?x2531) (* 2.0 |v0:11|)) (* ?x1711 |v2:9|)) ?x894)))
 (let ((?x1017 (* 20.0 |v9:2|)))
 (let ((?x1631 (+ (+ (+ (* ?x574 |v9:2|) (* (- 17.0) |v8:3|)) (* (- 18.0) ?x3175)) ?x1017)))
 (let (($x508 (<= (+ (+ (+ (* 5.0 |v2:9|) (* 14.0 |v9:2|)) (* 8.0 |v1:10|)) ?x1926) ?x1034)))
 (let ((?x1581 (- 17.0)))
 (let (($x233 (<= (+ (+ (+ (* ?x1581 ?x934) (* ?x2641 |v0:11|)) ?x970) (* ?x23 |v3:8|)) ?x1581)))
 (let (($x2737 (or (and $x233 (and $x508 (<= ?x1631 ?x1034))) (or (or $x2218 (<= ?x1338 ?x1021)) (or (<= ?x729 1.0) $x195)))))
 (let ((?x2515 (* 15.0 ?x760)))
 (let (($x859 (<= (+ (+ (+ (* 16.0 |v1:10|) (* ?x1581 |v11:0|)) (* 16.0 ?x760)) ?x2515) ?x2312)))
 (let ((?x1433 (* ?x574 |v0:11|)))
 (let (($x3120 (<= (+ (+ (+ (* 5.0 |v8:3|) (* 9.0 |v11:0|)) (* 9.0 |v10:1|)) ?x1433) 17.0)))
 (let ((?x1278 (- 18.0)))
 (let ((?x82 (* 15.0 |v11:0|)))
 (let ((?x811 (* 20.0 |v3:8|)))
 (let ((?x1936 (+ (+ (* 16.0 |v1:10|) (* (- 9.0) |v2:9|)) ?x811)))
 (let (($x722 (or (and (<= (+ ?x1936 ?x82) ?x1278) $x3120) (and (<= (+ (+ (+ ?x962 ?x1017) ?x760) (* ?x2641 |v0:11|)) ?x734) $x859))))
 (let ((?x1880 (* ?x23 |v11:0|)))
 (let (($x264 (<= (+ (+ (+ (* ?x734 ?x3175) (* ?x2329 |v9:2|)) (* ?x1034 ?x3175)) ?x1880) 19.0)))
 (let ((?x2775 (* 5.0 ?x934)))
 (let (($x584 (<= (+ (+ (+ (* 9.0 ?x3175) (* 20.0 |v1:10|)) (* 8.0 ?x760)) ?x2775) 4.0)))
 (let ((?x1062 (+ (+ (+ (* 17.0 |v3:8|) (* ?x1278 |v8:3|)) (* ?x2312 |v3:8|)) (* (- 5.0) ?x3175))))
 (let ((?x2703 (+ (+ (+ (* ?x581 ?x3175) (* 13.0 ?x3175)) (* ?x1978 ?x468)) (* 16.0 ?x3175))))
 (let (($x1885 (or (or (or (and (<= ?x2703 ?x2105) (<= ?x1062 15.0)) (or $x584 $x264)) $x722) $x2737)))
 (let (($x3027 (not (= |v4:7_st| (RMk1 val!4183)))))
 (let (($x820 (not (= |v5:6_st| (RMk1 val!4182)))))
 (let (($x1286 (not (= |v6:5_st| (RMk1 val!4181)))))
 (let (($x2483 (not (= |v7:4_st| (RMk1 val!4180)))))
 (and $x2483 $x1286 $x820 $x3027 (and (or $x1885 (or $x954 $x457)) (or (and $x2561 $x1253) (or $x1775 $x2123)))))))))))))))))))))))))))))))))))))))))))))))))))))))))))))))))))))))))))))))))))))))))))))))))))))))))))))))))))))))
 )
 )
 )
 )
 )
 )
 )
 )
 )
 )
 )
 )
(check-sat)
